&CONTROL
  calculation = 'scf'
  prefix = 'si'
  outdir = './'
  pseudo_dir = './'
/

&SYSTEM
  ibrav = 2
  celldm(1) = 10.26
  nat = 2
  nbnd = 12
  ntyp = 1
  ecutwfc = 30.0
  ecutrho = 120.0
  nosym = .true.
  noinv = .true.
/

&ELECTRONS
  conv_thr = 1.0d-8
  mixing_beta = 0.7
/

ATOMIC_SPECIES
  Si  28.086  Si.pbe-rrkj.UPF

ATOMIC_POSITIONS (alat)
  Si 0.00 0.00 0.00
  Si 0.25 0.25 0.25

K_POINTS automatic
  10 10 10 0 0 0