 &BANDS
    prefix      = 'si'    ! name of calculation
    outdir      = './'
    filband     = 'si.bands.dat'
    lsym        = .false.
 /

 